webassembly/ejemplos_dzn/folder9_json_56.dzn
TERM = { '.', 's(2)', 's(5)', 's(4)', 'in_1', 'local_0', 'local_1', 's(6)', 's(1)', 's(0)', 's(3)', 'in_0'};
null = '.';
s = 9;
n = 9;
ndeps = 5;
max_registers_sz = 5;
NR = 2;
registers = [|'local_0', 's(0)', |'local_1', 'in_0'|];
dependencies = [|'i32.load_1', 'call[function_index(0)]_3', |'call[function_index(0)]_3', 'i32.load8_s_4', |'call[function_index(0)]_3', 'i32.load8_u_5', |'i32.load8_s_4', 'i32.store_7', |'i32.load8_u_5', 'i32.store_7'|];
GET_ENUM = { GET1, GET2, GET3, GET4, GET5, GET6, GET7};
SET_ENUM = { SET1, SET2, SET3, SET4, SET5, SET6, SET7};
TEE_ENUM = { TEE1, TEE2, TEE3, TEE4, TEE5, TEE6, TEE7};
N = 6;
OP = { 'i32.const_0', 'call[function_index(0)]_3', 'i32.load_1', 'i32.load8_s_4', 'i32.load8_u_5', 'i32.store_7' };
in_ops = [0, 1, 1, 1, 1, 2 ];
out_ops = [1, 3, 1, 1, 1, 0 ];
in1 = ['.', 'in_1', 'in_0', 's(3)', 's(4)', 's(0)' ];
in2 = ['.', '.', '.', '.', '.', 's(5)' ];
in3 = ['.', '.', '.', '.', '.', '.' ];
out1 = ['s(6)', 's(3)', 's(0)', 's(4)', 's(5)', '.' ];
out2 = ['.', 's(2)', '.', '.', '.', '.' ];
out3 = ['.', 's(1)', '.', '.', '.', '.' ];
comm = [false, false, false, false, false, false ];
gas = [1, 1, 1, 1, 1, 1 ];
sz = [1, 1, 1, 1, 1, 1 ];
stor = [false, true, false, false, false, true ];
lb = [ 1, 1, 1, 1, 1, 1 ];
ub = [ 9, 9, 9, 9, 9, 9 ];
startstack = [ 'in_0', 'in_1', null, null, null, null, null, null, null ];
endstack = [ 's(6)', 's(2)', 's(1)', null, null, null, null, null, null ];
