webassembly/ejemplos_results/9/folder9_json_56.txt
value = 9;
fgas = [1, 1, 1, 1, 1, 1, 1, 1, 1];
fsize = [1, 1, 1, 1, 1, 1, 1, 1, 1];
states = 
[|   in_0,   in_1,    '.',    '.', '.', '.', '.',    '.',  '.'
 |   in_0,   in_1,    '.',    '.', '.', '.', '.',    '.',  '.'
 | 's(0)', 's(5)',    '.',    '.', '.', '.', '.',    '.',  '.'
 |   in_1,    '.',    '.',    '.', '.', '.', '.', 's(1)', in_0
 | 's(3)', 's(2)', 's(1)', 's(1)', '.', '.', '.',    '.',  '.'
 | 's(4)',   in_0, 's(1)', 's(1)', '.', '.', '.',    '.',  '.'
 | 's(5)', 's(0)', 's(1)', 's(1)', '.', '.', '.',    '.',  '.'
 | 's(0)', 's(1)', 's(1)',    '.', '.', '.', '.',    '.',  '.'
 | 's(1)', 's(1)',    '.',    '.', '.', '.', '.',    '.',  '.'
 | 's(6)', 's(2)', 's(1)',    '.', '.', '.', '.',    '.',  '.'
 |];
register_states = 
[| local_0, local_1, '.', '.', '.', '.', '.'
 | local_0,    in_0, '.', '.', '.', '.', '.'
 | local_0,    in_0, '.', '.', '.', '.', '.'
 | local_0,    in_0, '.', '.', '.', '.', '.'
 | local_0,    in_0, '.', '.', '.', '.', '.'
 | local_0,    in_0, '.', '.', '.', '.', '.'
 | local_0,    in_0, '.', '.', '.', '.', '.'
 |  's(5)',    in_0, '.', '.', '.', '.', '.'
 |  's(0)',    in_0, '.', '.', '.', '.', '.'
 |  's(0)',    in_0, '.', '.', '.', '.', '.'
 |];
program = [TEE(TEE2), O('i32.load_1'), O('i32.store_7'), O('call[function_index(0)]_3'), O('i32.load8_s_4'), O('i32.load8_u_5'), S(SET1), S(SET1), O('i32.const_0')];
% time elapsed: 0.14 s
----------
==========
% time elapsed: 0.15 s
% [value > 8]
